9	6	5		
0	1	J1		
1	2	J1		
3	4	J2		
4	5	J2		
6	7	J3		
7	8	J3		
2	0	117	1	125
2	3	140	1	130
2	3	150	4	160
2	0	214	2	150
2	2	55	1	66
2	4	78	2	65
2	0	87	1	62
2	3	70	2	80
2	3	190	4	100
0	29	57	25	37
29	0	28	52	49
57	28	0	51	62
25	52	51	0	45
37	49	62	45	0
